p cnf 560 1066
-5  -1  2  0
9  -5  6  0
13  9  10  0
17  13  -14  0
-21  17  18  0
-25  -21  22  0
29  -25  26  0
33  29  30  0
41  37  38  0
-45  -41  -42  0
49  45  -46  0
53  49  50  0
61  57  -58  0
-65  61  -62  0
-69  65  66  0
81  77  78  0
85  81  82  0
-89  85  -86  0
-93  -89  -90  0
-97  93  94  0
-105  101  -102  0
-109  105  106  0
113  109  -110  0
125  -121  122  0
-129  125  -126  0
-133  129  -130  0
141  137  138  0
-145  -141  142  0
-153  -149  150  0
-165  161  -162  0
173  -169  170  0
-181  -177  -178  0
185  -181  -182  0
-193  -189  -190  0
-197  -193  -194  0
-201  -197  -198  0
213  209  -210  0
-217  -213  214  0
-225  -221  -222  0
237  233  234  0
-245  241  -242  0
253  249  250  0
-257  -253  254  0
-261  -257  -258  0
273  269  270  0
277  273  -274  0
281  277  278  0
289  285  -286  0
-297  -293  -294  0
-309  -305  306  0
-313  -309  -310  0
-317  313  -314  0
-321  -317  -318  0
-325  -321  322  0
-329  -325  -326  0
337  333  334  0
345  -341  -342  0
-349  345  346  0
353  -349  350  0
-357  -353  -354  0
-361  -357  -358  0
-365  -361  -362  0
-369  365  366  0
-377  373  374  0
-381  -377  378  0
389  -385  -386  0
393  389  -390  0
-397  393  394  0
-401  397  398  0
413  -409  410  0
-417  413  -414  0
421  -417  -418  0
425  421  -422  0
429  425  426  0
-437  -433  -434  0
445  -441  442  0
449  445  446  0
-457  -453  -454  0
-461  457  -458  0
-465  461  -462  0
-469  465  -466  0
-477  -473  -474  0
-481  -477  478  0
489  -485  -486  0
-493  -489  490  0
497  -493  494  0
505  501  502  0
-509  505  -506  0
-521  -517  518  0
-525  -521  522  0
-529  -525  526  0
-533  -529  530  0
-537  533  -534  0
541  -537  -538  0
545  -541  542  0
-549  -545  -546  0
557  553  -554  0
-10  9  -5  0
-10  -5  6  0
-10  -6  7  0
-14  13  9  0
-14  9  -10  0
14  10  -11  0
-18  -17  -13  0
18  14  -15  0
-22  -21  17  0
-22  -17  -18  0
26  -25  22  0
-30  29  -26  0
30  29  25  0
-30  25  26  0
30  -26  27  0
34  30  31  0
38  37  34  0
-42  -41  37  0
-42  37  -38  0
-42  -38  -39  0
46  -45  -42  0
-46  45  -41  0
-46  41  -42  0
50  49  46  0
50  -49  -45  0
-50  46  -47  0
-54  49  -50  0
54  -50  51  0
-58  57  54  0
58  53  54  0
58  54  55  0
62  57  -58  0
-62  -58  -59  0
-66  -65  -62  0
-66  -65  -61  0
66  -62  63  0
70  -69  -66  0
70  69  -65  0
70  66  -67  0
-74  69  70  0
74  -70  -71  0
-78  -77  74  0
-78  77  -73  0
-78  73  -74  0
-78  -74  -75  0
-82  81  -78  0
-82  -81  77  0
86  85  -82  0
-86  -82  -83  0
-90  -89  85  0
90  85  86  0
90  -86  -87  0
94  -93  89  0
-94  89  -90  0
-94  -90  -91  0
-98  -93  -94  0
-102  101  -97  0
102  -97  98  0
102  98  -99  0
-106  105  -102  0
106  -105  101  0
106  102  103  0
110  -109  106  0
110  -109  -105  0
110  105  -106  0
110  -106  107  0
114  -109  -110  0
114  -110  111  0
-118  117  -114  0
118  117  113  0
122  121  117  0
-122  118  -119  0
-126  125  -122  0
-126  -121  -122  0
126  -122  123  0
130  -129  126  0
130  -129  125  0
-130  125  -126  0
130  -126  -127  0
-134  -133  129  0
134  -129  130  0
138  -137  -134  0
138  -133  134  0
-142  141  -138  0
-142  141  137  0
-142  138  -139  0
-146  -145  -142  0
-146  145  141  0
-146  -141  -142  0
-146  -142  143  0
-150  -149  -146  0
-150  145  -146  0
150  -146  147  0
-154  153  149  0
154  -149  -150  0
154  150  -151  0
158  -157  154  0
-158  -157  153  0
-158  -153  -154  0
-158  -154  -155  0
-162  161  -158  0
-162  -161  157  0
-162  -157  -158  0
-162  -158  -159  0
166  -165  162  0
-166  -165  161  0
166  -161  162  0
-166  162  -163  0
-170  169  -166  0
-170  -169  -165  0
-170  -165  -166  0
-174  173  -169  0
174  169  -170  0
-174  170  -171  0
178  -177  -174  0
-178  177  173  0
178  173  174  0
182  -181  -177  0
182  -177  -178  0
182  -178  179  0
-186  185  182  0
-186  -185  181  0
-186  -181  182  0
-186  182  -183  0
-190  189  186  0
-190  185  186  0
-194  193  190  0
194  -193  189  0
194  -190  -191  0
198  197  194  0
-198  -197  193  0
202  201  198  0
202  -201  -197  0
-202  -197  -198  0
-202  -198  199  0
206  205  202  0
-206  -205  201  0
-206  201  202  0
206  -202  -203  0
-210  -209  -206  0
210  -209  -205  0
-210  206  -207  0
-214  213  210  0
-214  213  209  0
-218  -217  -214  0
218  213  -214  0
-222  221  -218  0
222  221  217  0
222  217  218  0
-226  -225  222  0
-226  222  223  0
230  -229  226  0
230  229  -225  0
-234  -233  230  0
-234  -233  -229  0
234  229  -230  0
-234  230  231  0
238  237  233  0
-238  233  -234  0
238  -234  235  0
-242  -237  238  0
-242  -238  -239  0
246  241  -242  0
246  242  -243  0
-250  -249  246  0
250  249  -245  0
250  246  247  0
-254  253  -250  0
-254  253  -249  0
254  249  -250  0
-254  -250  -251  0
258  -257  254  0
-258  257  -253  0
-258  254  255  0
262  261  -257  0
262  257  258  0
262  -258  -259  0
266  -261  262  0
-270  -269  -266  0
270  265  -266  0
-270  266  -267  0
274  -273  269  0
274  -269  -270  0
-278  -277  -273  0
-278  -273  -274  0
282  -281  278  0
-282  278  279  0
286  -285  282  0
-286  281  282  0
286  -282  -283  0
-290  289  -286  0
-290  285  286  0
-294  -289  290  0
-294  -290  -291  0
-298  297  294  0
298  293  -294  0
-298  -294  295  0
-302  301  298  0
-302  -297  298  0
306  -301  302  0
-306  -302  -303  0
-310  -309  305  0
310  305  306  0
-310  306  307  0
-314  313  -310  0
-314  313  309  0
314  -309  -310  0
-314  310  311  0
318  314  315  0
-322  321  318  0
322  -317  -318  0
322  -318  -319  0
-326  -325  322  0
-326  325  321  0
-326  321  322  0
-330  329  -326  0
330  -325  -326  0
-334  -333  -330  0
-334  -333  329  0
334  329  -330  0
334  330  -331  0
338  -337  333  0
-342  -341  -337  0
-342  -337  338  0
-342  -338  -339  0
-346  345  342  0
-346  -345  -341  0
-346  341  -342  0
346  342  -343  0
350  -349  346  0
350  -349  -345  0
354  -353  -350  0
-354  353  -349  0
354  -349  -350  0
358  -357  354  0
358  354  -355  0
-362  -361  -358  0
366  362  363  0
-370  369  -366  0
370  365  -366  0
370  -366  -367  0
-374  -373  370  0
374  -373  -369  0
-374  370  371  0
-378  377  374  0
378  -373  -374  0
-378  374  375  0
382  381  -377  0
-382  377  378  0
-382  378  -379  0
-386  -385  -382  0
386  -382  383  0
-390  -389  -386  0
-390  -389  -385  0
-390  385  386  0
390  -386  387  0
-394  -393  -390  0
-394  -393  -389  0
-394  -389  390  0
-394  390  391  0
398  397  394  0
-398  393  394  0
398  -394  -395  0
402  397  -398  0
406  -405  402  0
406  405  401  0
410  -409  -406  0
410  -405  -406  0
414  413  -410  0
-414  413  409  0
-418  -417  413  0
418  -414  415  0
422  -421  418  0
422  -421  417  0
-422  -418  419  0
-426  425  422  0
426  -425  421  0
-426  421  422  0
426  422  423  0
430  429  -426  0
430  425  426  0
-434  -433  430  0
-434  -433  429  0
-434  430  431  0
-438  -437  -433  0
438  434  -435  0
-442  -441  -438  0
-442  441  437  0
446  -445  -442  0
-446  -445  441  0
-450  -449  -446  0
-450  446  -447  0
454  453  450  0
454  453  -449  0
-458  -457  -454  0
458  -457  453  0
-462  461  -458  0
462  458  -459  0
466  465  462  0
-466  -465  461  0
466  -461  462  0
466  -462  463  0
-470  -469  -466  0
470  -469  465  0
-470  465  466  0
474  473  470  0
-474  -473  -469  0
478  -477  -474  0
-478  -477  -473  0
478  474  475  0
-482  -481  -477  0
482  477  478  0
482  -478  479  0
-486  485  482  0
-486  485  -481  0
-486  -481  482  0
-486  482  -483  0
490  489  486  0
490  -489  -485  0
-490  485  486  0
-490  486  -487  0
494  493  -490  0
-494  -493  489  0
-494  489  490  0
-494  490  491  0
498  -497  -493  0
-498  493  494  0
-498  -494  -495  0
-502  501  497  0
502  -497  -498  0
-502  498  -499  0
-506  505  502  0
-506  505  501  0
510  -509  -506  0
510  509  505  0
510  -505  506  0
-514  513  -510  0
514  513  509  0
-514  509  510  0
514  510  -511  0
518  517  513  0
518  513  514  0
518  -514  -515  0
-522  -521  518  0
522  -517  -518  0
-522  518  519  0
526  525  522  0
-526  525  -521  0
-526  521  522  0
526  522  -523  0
-530  -525  -526  0
-530  526  527  0
534  530  -531  0
538  537  -534  0
538  537  533  0
-538  533  -534  0
538  -534  535  0
-542  -541  538  0
-542  541  -537  0
-542  538  539  0
-546  -545  -542  0
546  545  541  0
546  541  542  0
550  549  -546  0
-550  549  545  0
550  -545  546  0
-550  546  -547  0
-554  -553  -550  0
554  -553  549  0
-558  557  -554  0
558  -557  -553  0
558  554  -555  0
7  -6  -3  0
7  -6  2  0
7  3  -4  0
11  -10  6  0
11  -6  7  0
15  14  -11  0
15  14  10  0
15  -11  12  0
19  -18  -14  0
-19  15  -16  0
23  -22  18  0
-23  -18  -19  0
-23  -19  20  0
-27  -26  22  0
31  -26  -27  0
31  -27  -28  0
35  -34  -31  0
35  34  30  0
35  -30  31  0
-39  -38  35  0
39  -38  34  0
39  -34  -35  0
-43  42  -39  0
43  42  -38  0
43  -38  39  0
43  39  40  0
-47  42  -43  0
47  43  44  0
-51  46  -47  0
55  -54  51  0
55  -54  -50  0
59  58  55  0
-59  58  -54  0
59  54  55  0
63  -62  59  0
63  58  59  0
-67  -66  -63  0
67  66  62  0
-67  -62  63  0
-67  -63  64  0
-71  -70  -67  0
-71  -70  -66  0
-71  66  67  0
-71  67  -68  0
75  -70  71  0
-75  71  -72  0
79  -78  -75  0
79  74  75  0
83  82  79  0
-83  -82  78  0
-83  79  -80  0
-87  86  82  0
-87  82  -83  0
-87  83  -84  0
91  -90  87  0
91  90  86  0
91  -86  -87  0
95  -94  -90  0
95  90  -91  0
95  -91  92  0
-99  98  95  0
-99  -98  -94  0
99  94  95  0
-103  -102  98  0
103  98  99  0
103  99  -100  0
107  -106  -102  0
-107  102  103  0
107  -103  -104  0
-111  110  106  0
-111  106  107  0
111  -107  108  0
-115  110  111  0
-119  -118  115  0
119  -118  -114  0
-119  -114  -115  0
-119  -115  -116  0
123  -122  -118  0
-127  126  -122  0
131  130  126  0
131  -127  128  0
135  -134  -131  0
-135  -130  -131  0
135  131  -132  0
-139  138  -135  0
139  -138  -134  0
139  134  -135  0
-143  142  138  0
-143  139  140  0
-147  146  142  0
-147  -142  143  0
-147  143  -144  0
151  -150  147  0
-151  147  148  0
155  -154  -151  0
155  154  150  0
-155  -151  152  0
159  158  -155  0
-159  -154  155  0
159  -155  156  0
163  162  158  0
163  -158  -159  0
167  166  162  0
167  162  -163  0
171  -170  167  0
-171  -170  -166  0
171  166  -167  0
-175  170  171  0
179  174  -175  0
-179  175  176  0
183  -182  -179  0
-183  -178  -179  0
187  -182  -183  0
187  183  -184  0
191  -190  186  0
191  -186  -187  0
-191  187  188  0
-195  -194  -190  0
-195  191  -192  0
199  -198  194  0
-199  194  195  0
-199  195  196  0
203  202  -199  0
-203  202  -198  0
203  198  199  0
-207  -206  202  0
-211  210  -207  0
-215  214  211  0
-215  214  210  0
215  -210  -211  0
-215  211  -212  0
219  218  215  0
219  -218  -214  0
-219  -215  -216  0
223  -222  -219  0
223  -222  218  0
-223  -218  -219  0
-223  -219  220  0
-227  -222  -223  0
227  223  -224  0
231  230  -227  0
-231  226  -227  0
-231  -227  -228  0
-235  234  230  0
235  230  231  0
235  -231  232  0
239  238  235  0
-239  -238  234  0
239  -234  -235  0
-239  -235  -236  0
-243  242  -239  0
-243  242  -238  0
-247  -246  243  0
247  246  -242  0
-247  -243  244  0
-251  250  247  0
251  -250  -246  0
-255  254  251  0
255  250  251  0
-255  -251  252  0
259  258  -255  0
-259  258  -254  0
-259  254  255  0
-263  262  -258  0
-267  -266  263  0
-267  -262  263  0
-271  270  267  0
-271  270  266  0
271  266  267  0
-271  267  -268  0
-275  274  -271  0
279  -278  275  0
279  278  -274  0
279  -274  -275  0
-283  282  279  0
-283  278  -279  0
283  279  -280  0
-287  286  -283  0
287  -282  283  0
287  283  -284  0
-291  -290  -286  0
-291  -286  -287  0
295  -294  -290  0
-295  291  292  0
299  295  -296  0
-303  -302  -298  0
-303  299  -300  0
-307  306  302  0
307  -302  -303  0
-307  303  304  0
311  -310  -307  0
-311  -310  306  0
-315  314  311  0
-315  -314  -310  0
315  310  -311  0
-315  -311  -312  0
319  -318  -315  0
319  -314  315  0
319  -315  -316  0
-323  -322  -319  0
323  -322  -318  0
323  -318  -319  0
-323  319  -320  0
327  326  -323  0
327  322  323  0
331  330  327  0
331  -330  -326  0
-335  334  330  0
-335  331  332  0
-339  -335  -336  0
343  -342  338  0
347  346  -343  0
-347  346  -342  0
-347  342  343  0
347  -343  -344  0
-351  -350  -347  0
351  350  346  0
-351  -347  348  0
-355  354  -351  0
-355  -354  350  0
-355  -350  -351  0
355  351  352  0
359  -358  -355  0
363  362  359  0
363  358  -359  0
-363  -359  360  0
-367  -366  362  0
-367  362  363  0
371  370  -367  0
371  -366  367  0
-371  -367  -368  0
375  -374  370  0
375  -370  -371  0
375  -371  -372  0
-379  378  375  0
-379  378  374  0
-379  374  -375  0
383  378  379  0
383  379  380  0
-387  -386  383  0
387  386  382  0
387  382  383  0
387  383  384  0
391  -386  387  0
-391  387  -388  0
395  394  390  0
-395  -390  -391  0
-395  391  392  0
-399  -398  395  0
-399  398  -394  0
-399  -394  -395  0
-403  -402  -399  0
403  402  -398  0
-403  -398  399  0
407  -406  402  0
-411  -410  -406  0
-411  406  -407  0
-411  407  -408  0
415  -414  -410  0
-415  -410  411  0
419  418  -415  0
-419  -418  -414  0
419  -414  415  0
-423  422  419  0
-423  -422  418  0
423  -418  -419  0
427  426  423  0
-427  426  422  0
-427  422  423  0
-427  -423  424  0
-431  -426  427  0
435  -434  -430  0
435  430  -431  0
-439  -438  434  0
-439  -435  -436  0
-447  442  443  0
-447  443  444  0
-451  -450  446  0
-451  -446  447  0
-455  -454  451  0
455  454  -450  0
-455  -450  451  0
-459  458  455  0
-459  458  -454  0
459  455  456  0
-463  -462  -459  0
-463  -462  -458  0
-463  458  -459  0
467  -466  462  0
467  463  -464  0
471  -470  467  0
-471  470  -466  0
471  466  467  0
471  -467  468  0
-475  -474  -471  0
475  471  -472  0
479  -478  474  0
-479  474  475  0
479  -475  -476  0
-483  -482  478  0
483  -478  -479  0
-483  479  480  0
-487  -482  483  0
-491  -490  -487  0
-491  490  -486  0
-491  487  488  0
-495  494  491  0
495  494  -490  0
495  -491  492  0
499  498  -495  0
-499  498  494  0
-499  -494  495  0
-499  495  -496  0
503  -502  -498  0
-507  -506  -503  0
507  506  -502  0
-507  503  504  0
-511  -510  -506  0
515  514  511  0
519  518  -514  0
-519  -514  -515  0
523  518  -519  0
-523  519  520  0
527  522  -523  0
-527  -523  524  0
531  530  526  0
-531  -526  527  0
-535  534  -530  0
-535  530  531  0
539  538  -535  0
-539  -538  -534  0
-539  534  535  0
-539  535  536  0
543  -542  -538  0
543  -538  539  0
547  546  -543  0
547  546  542  0
547  -542  -543  0
-547  543  544  0
555  554  -551  0
555  550  -551  0
-555  551  552  0
-559  -558  555  0
559  558  554  0
559  -554  -555  0
559  -555  556  0
-8  3  -4  0
12  11  7  0
-12  7  8  0
16  -15  -12  0
16  -15  11  0
-16  11  -12  0
20  -19  16  0
20  -19  15  0
-24  -19  20  0
-28  27  24  0
-28  -23  -24  0
-32  31  28  0
-32  31  -27  0
32  -27  -28  0
-36  -35  -31  0
-36  -31  32  0
-40  -39  -36  0
40  39  35  0
40  -35  -36  0
-44  -43  -40  0
44  -39  -40  0
48  -47  -43  0
-52  51  48  0
-52  -51  -47  0
-52  -47  -48  0
56  55  52  0
-56  55  -51  0
56  51  52  0
64  63  60  0
-64  59  60  0
-68  67  -64  0
-72  -71  68  0
72  71  -67  0
76  75  72  0
-76  -75  71  0
76  71  -72  0
-80  -75  76  0
84  83  80  0
-84  -79  80  0
-88  -87  -84  0
-88  87  83  0
88  -83  -84  0
92  -87  88  0
-96  95  -92  0
96  -95  91  0
-104  103  -99  0
104  99  100  0
-108  107  103  0
112  -111  108  0
-112  107  -108  0
116  -115  112  0
116  -115  -111  0
-116  111  112  0
120  119  115  0
-120  115  116  0
124  123  -120  0
124  123  119  0
124  -119  120  0
128  127  -124  0
-128  123  -124  0
-132  -131  -128  0
132  -131  127  0
-132  -127  -128  0
136  -135  -131  0
136  131  132  0
140  139  135  0
-144  -143  -140  0
-144  143  -139  0
-144  -139  140  0
148  147  144  0
148  -147  -143  0
148  143  144  0
-152  -151  148  0
152  147  -148  0
-156  -155  151  0
-156  151  -152  0
160  155  156  0
-164  163  159  0
-164  159  -160  0
168  -167  164  0
-168  167  -163  0
-168  -163  -164  0
172  167  -168  0
-176  -175  172  0
176  175  171  0
-176  171  -172  0
-180  -179  -175  0
180  175  -176  0
184  183  179  0
184  179  180  0
188  183  -184  0
-192  -191  -188  0
-192  191  187  0
-192  -187  188  0
-196  -195  192  0
196  -191  192  0
200  199  -196  0
-204  199  -200  0
208  -207  -204  0
-208  203  204  0
212  -211  -208  0
-212  211  207  0
-212  -207  -208  0
-216  -211  -212  0
220  219  216  0
220  219  215  0
-220  215  216  0
224  223  220  0
-224  219  220  0
228  227  -224  0
228  -223  224  0
-240  239  -236  0
-240  -239  235  0
-244  243  -240  0
-248  -247  244  0
248  -247  -243  0
248  -243  -244  0
-252  -247  248  0
256  255  -252  0
260  -255  256  0
-264  -259  260  0
272  -271  -268  0
272  267  -268  0
-276  275  -272  0
276  275  -271  0
276  271  272  0
-280  -279  -276  0
-280  -279  -275  0
284  -283  280  0
284  -279  280  0
288  287  284  0
-288  -287  283  0
-292  -291  -288  0
292  -287  288  0
296  295  -292  0
-296  -295  -291  0
300  -295  296  0
-304  -299  300  0
-308  307  -304  0
-308  303  -304  0
-312  311  308  0
316  315  312  0
-316  -315  -311  0
316  -311  312  0
320  -315  316  0
324  323  -320  0
328  327  324  0
328  -327  323  0
328  -323  324  0
332  -331  327  0
336  -331  332  0
340  -339  -336  0
340  -339  335  0
-340  -335  -336  0
348  347  -344  0
-348  347  343  0
348  343  -344  0
352  -351  -348  0
-352  351  -347  0
352  347  -348  0
356  355  351  0
-360  359  -356  0
-360  -359  355  0
-360  355  356  0
-364  359  360  0
372  371  -367  0
372  367  368  0
-376  375  -371  0
376  -371  -372  0
380  379  -376  0
380  -379  375  0
-384  -383  -380  0
384  383  -379  0
-384  -379  380  0
388  387  -384  0
388  -383  -384  0
392  -391  388  0
-392  -391  387  0
396  -395  392  0
-396  -395  391  0
396  391  -392  0
400  -399  -396  0
-400  -399  395  0
-400  -395  396  0
404  -403  400  0
404  -403  -399  0
-404  399  -400  0
-408  407  -403  0
412  411  -408  0
412  407  408  0
-416  415  412  0
-416  -415  411  0
416  411  -412  0
-420  419  -415  0
-420  -415  -416  0
424  423  419  0
-424  -419  420  0
-428  -427  -424  0
428  427  -423  0
428  -423  424  0
-432  -431  -428  0
432  -431  -427  0
-432  -427  -428  0
436  435  -432  0
-440  -439  -436  0
-440  439  435  0
440  -435  436  0
444  -443  440  0
444  -443  -439  0
-448  -447  444  0
448  443  444  0
452  451  447  0
-452  447  448  0
460  459  -456  0
-464  459  -460  0
-468  467  -463  0
468  463  464  0
472  -471  467  0
-476  -475  472  0
480  479  476  0
480  479  475  0
-484  483  480  0
-484  479  480  0
488  -487  -484  0
488  -487  -483  0
-488  -483  -484  0
-492  -491  487  0
492  487  -488  0
-496  495  -492  0
496  -495  -491  0
-500  -499  -496  0
-504  -503  -500  0
-512  -511  508  0
-512  -511  -507  0
516  -515  512  0
-524  523  520  0
524  519  -520  0
528  -527  -523  0
-528  -523  -524  0
-532  -527  -528  0
536  531  -532  0
-540  -535  536  0
544  -543  540  0
-544  -539  540  0
548  -543  544  0
552  -551  547  0
-552  -547  -548  0
556  -551  -552  0
560  559  556  0
560  -559  555  0
560  -555  556  0
